Route #1: 126 4 136 115 116 124 9 109 97 19 7 32 16 36 25 118 128 127 84 68 13 130
Route #2: 78 17 2 93 135 58 48 107 87 30 46 67 101 66 99 88 20 52 59 40 70 120
Route #3: 41 86 5 8 1 111 60 121 34 117 92 108 106 139 55 95 57 73 51 49 50 71
Route #4: 43 114 110 53 72 102 6 79 98 31 134 63 103 38 15 27 24 82 123 137 142 83 56 91
Route #5: 85 35 28 133 90 18 47 96 33 125 21 23 141 131 140 112 3 113 10
Route #6: 45 61 64 74 81 62 104 132 37 122 77 22 80 39 69 42 29 26 75 94 76 129 105
Route #7: 138 119 14 100 11 44 65 89 12 54
Cost 20631
